1	3	1	1	3	10	0	0	0	0	0	0
1400	1	0	0	0	0	0	0	0	0	0	0
175	1	0	77.75	3.47	1	0	0	0	0	0	0
175	1	0	77.75	3.47	1	0	0	0	0	0	0
175     1       0       77.75   3.47    1       0       0       0       0       0       0
50	150	0	0	0	0	3390	0	0	99999	0	0
50	75	0	0	0	0	3390	0	0	99999	0	0
50	75	0	0	0	0	3390	0	0	0	0	0
57	82	0	0	0	0	3390	0	0	0	0	0
39	26	0	0	0	0	3390	0	0	0	0	0
34	60	20	11	9	113	433	90	0	0	0	0
28	70	10	4	6	239	559	90	0	0	0	0
30	35	10	9	1	328	648	90	0	0	0	0
35	5	20	3	17	1413	1733	90	0	0	0	0
65	82	10	8	2	530	850	90	0	0	0	0
45	65	20	14	6	1200	1520	90	0	0	0	0
47	35	10	7	3	2734	3054	90	0	0	0	0
55	80	10	7	3	911	1231	90	0	0	0	0
40	5	30	4	26	1598	1918	90	0	0	0	0
20	80	40	10	30	432	752	90	0	0	0	0
